unsat
(error "line 2760 column 17: model is not available")
(error "line 2761 column 17: model is not available")
(error "line 2762 column 18: model is not available")
(error "line 2763 column 19: model is not available")
(error "line 2764 column 19: model is not available")
(error "line 2765 column 19: model is not available")
(error "line 2766 column 19: model is not available")
(error "line 2767 column 19: model is not available")
(error "line 2768 column 19: model is not available")
(error "line 2769 column 19: model is not available")
(error "line 2770 column 19: model is not available")
(error "line 2771 column 19: model is not available")
(error "line 2772 column 19: model is not available")
(error "line 2773 column 18: model is not available")
(error "line 2774 column 19: model is not available")
(error "line 2775 column 19: model is not available")
(error "line 2776 column 19: model is not available")
(error "line 2777 column 19: model is not available")
(error "line 2778 column 19: model is not available")
(error "line 2779 column 19: model is not available")
(error "line 2780 column 19: model is not available")
(error "line 2781 column 19: model is not available")
(error "line 2782 column 19: model is not available")
(error "line 2783 column 19: model is not available")
(error "line 2784 column 18: model is not available")
(error "line 2785 column 19: model is not available")
(error "line 2786 column 19: model is not available")
(error "line 2787 column 19: model is not available")
(error "line 2788 column 18: model is not available")
(error "line 2789 column 18: model is not available")
(error "line 2790 column 18: model is not available")
(error "line 2791 column 18: model is not available")
(error "line 2792 column 18: model is not available")
(error "line 2793 column 18: model is not available")
(error "line 2794 column 18: model is not available")
(error "line 2795 column 17: model is not available")
(error "line 2796 column 18: model is not available")
(error "line 2797 column 18: model is not available")
(error "line 2798 column 18: model is not available")
(error "line 2799 column 18: model is not available")
(error "line 2800 column 18: model is not available")
(error "line 2801 column 18: model is not available")
(error "line 2802 column 18: model is not available")
(error "line 2803 column 18: model is not available")
(error "line 2804 column 18: model is not available")
(error "line 2805 column 18: model is not available")
(error "line 2806 column 17: model is not available")
(error "line 2807 column 18: model is not available")
(error "line 2808 column 18: model is not available")
(error "line 2809 column 18: model is not available")
(error "line 2810 column 18: model is not available")
(error "line 2811 column 18: model is not available")
(error "line 2812 column 18: model is not available")
(error "line 2813 column 18: model is not available")
(error "line 2814 column 18: model is not available")
(error "line 2815 column 18: model is not available")
(error "line 2816 column 18: model is not available")
(error "line 2817 column 17: model is not available")
(error "line 2818 column 18: model is not available")
(error "line 2819 column 18: model is not available")
(error "line 2820 column 18: model is not available")
(error "line 2821 column 18: model is not available")
(error "line 2822 column 18: model is not available")
(error "line 2823 column 18: model is not available")
(error "line 2824 column 18: model is not available")
(error "line 2825 column 18: model is not available")
(error "line 2826 column 18: model is not available")
(error "line 2827 column 18: model is not available")
(error "line 2828 column 17: model is not available")
(error "line 2829 column 18: model is not available")
(error "line 2830 column 18: model is not available")
(error "line 2831 column 18: model is not available")
(error "line 2832 column 18: model is not available")
(error "line 2833 column 18: model is not available")
(error "line 2834 column 18: model is not available")
(error "line 2835 column 18: model is not available")
(error "line 2836 column 18: model is not available")
(error "line 2837 column 18: model is not available")
(error "line 2838 column 18: model is not available")
(error "line 2839 column 17: model is not available")
(error "line 2840 column 18: model is not available")
(error "line 2841 column 18: model is not available")
(error "line 2842 column 18: model is not available")
(error "line 2843 column 18: model is not available")
(error "line 2844 column 18: model is not available")
(error "line 2845 column 18: model is not available")
(error "line 2846 column 18: model is not available")
(error "line 2847 column 18: model is not available")
(error "line 2848 column 18: model is not available")
(error "line 2849 column 18: model is not available")
(error "line 2850 column 17: model is not available")
(error "line 2851 column 18: model is not available")
(error "line 2852 column 18: model is not available")
(error "line 2853 column 18: model is not available")
(error "line 2854 column 18: model is not available")
(error "line 2855 column 18: model is not available")
(error "line 2856 column 18: model is not available")
(error "line 2857 column 18: model is not available")
(error "line 2858 column 18: model is not available")
(error "line 2859 column 18: model is not available")
(error "line 2860 column 18: model is not available")
(error "line 2861 column 17: model is not available")
(error "line 2862 column 18: model is not available")
(error "line 2863 column 18: model is not available")
(error "line 2864 column 18: model is not available")
(error "line 2865 column 18: model is not available")
(error "line 2866 column 18: model is not available")
(error "line 2867 column 18: model is not available")
(error "line 2868 column 18: model is not available")
(error "line 2869 column 18: model is not available")
(error "line 2870 column 18: model is not available")
(error "line 2871 column 18: model is not available")
(error "line 2872 column 17: model is not available")
(error "line 2873 column 18: model is not available")
(error "line 2874 column 18: model is not available")
(error "line 2875 column 18: model is not available")
(error "line 2876 column 18: model is not available")
(error "line 2877 column 18: model is not available")
(error "line 2878 column 18: model is not available")
(error "line 2879 column 18: model is not available")
(error "line 2880 column 18: model is not available")
(error "line 2881 column 18: model is not available")
(error "line 2882 column 18: model is not available")
(error "line 2883 column 38: model is not available")
(error "line 2884 column 45: model is not available")
(error "line 2885 column 38: model is not available")
(error "line 2886 column 45: model is not available")
(error "line 2887 column 46: model is not available")
(error "line 2888 column 53: model is not available")
(error "line 2889 column 40: model is not available")
(error "line 2890 column 47: model is not available")
(error "line 2891 column 38: model is not available")
(error "line 2892 column 45: model is not available")
(error "line 2893 column 38: model is not available")
(error "line 2894 column 45: model is not available")
(error "line 2895 column 41: model is not available")
(error "line 2896 column 48: model is not available")
(error "line 2897 column 41: model is not available")
(error "line 2898 column 48: model is not available")
(error "line 2899 column 37: model is not available")
(error "line 2900 column 44: model is not available")
(error "line 2901 column 42: model is not available")
(error "line 2902 column 42: model is not available")
(error "line 2903 column 38: model is not available")
(error "line 2904 column 38: model is not available")
(error "line 2905 column 38: model is not available")
(error "line 2906 column 41: model is not available")
(error "line 2907 column 48: model is not available")
(error "line 2908 column 41: model is not available")
(error "line 2909 column 48: model is not available")
(error "line 2910 column 41: model is not available")
(error "line 2911 column 48: model is not available")
(error "line 2912 column 22: model is not available")
(error "line 2913 column 29: model is not available")
(error "line 2914 column 23: model is not available")
(error "line 2915 column 30: model is not available")
(error "line 2916 column 23: model is not available")
(error "line 2917 column 30: model is not available")
(error "line 2918 column 23: model is not available")
(error "line 2919 column 30: model is not available")
(error "line 2920 column 22: model is not available")
(error "line 2921 column 29: model is not available")
(error "line 2922 column 22: model is not available")
(error "line 2923 column 29: model is not available")
(error "line 2924 column 22: model is not available")
(error "line 2925 column 29: model is not available")
(error "line 2926 column 22: model is not available")
(error "line 2927 column 29: model is not available")
(error "line 2928 column 22: model is not available")
(error "line 2929 column 29: model is not available")
(error "line 2930 column 22: model is not available")
(error "line 2931 column 29: model is not available")
(error "line 2932 column 22: model is not available")
(error "line 2933 column 29: model is not available")
(error "line 2934 column 22: model is not available")
(error "line 2935 column 29: model is not available")
(error "line 2936 column 22: model is not available")
(error "line 2937 column 29: model is not available")
(error "line 2938 column 23: model is not available")
(error "line 2939 column 30: model is not available")
(error "line 2940 column 23: model is not available")
(error "line 2941 column 30: model is not available")
(error "line 2942 column 23: model is not available")
(error "line 2943 column 30: model is not available")
(error "line 2944 column 22: model is not available")
(error "line 2945 column 29: model is not available")
(error "line 2946 column 22: model is not available")
(error "line 2947 column 29: model is not available")
(error "line 2948 column 22: model is not available")
(error "line 2949 column 29: model is not available")
(error "line 2950 column 22: model is not available")
(error "line 2951 column 29: model is not available")
(error "line 2952 column 22: model is not available")
(error "line 2953 column 29: model is not available")
(error "line 2954 column 22: model is not available")
(error "line 2955 column 29: model is not available")
(error "line 2956 column 22: model is not available")
(error "line 2957 column 29: model is not available")
(error "line 2958 column 22: model is not available")
(error "line 2959 column 29: model is not available")
(error "line 2960 column 38: model is not available")
(error "line 2961 column 39: model is not available")
(error "line 2962 column 39: model is not available")
(error "line 2963 column 39: model is not available")
(error "line 2964 column 39: model is not available")
(error "line 2965 column 39: model is not available")
(error "line 2966 column 39: model is not available")
(error "line 2967 column 39: model is not available")
(error "line 2968 column 39: model is not available")
(error "line 2969 column 39: model is not available")
(error "line 2970 column 39: model is not available")
(error "line 2971 column 38: model is not available")
(error "line 2972 column 39: model is not available")
(error "line 2973 column 38: model is not available")
(error "line 2974 column 38: model is not available")
(error "line 2975 column 38: model is not available")
(error "line 2976 column 38: model is not available")
(error "line 2977 column 38: model is not available")
(error "line 2978 column 38: model is not available")
(error "line 2979 column 38: model is not available")
(error "line 2980 column 36: model is not available")
(error "line 2981 column 36: model is not available")
(error "line 2982 column 29: model is not available")
(error "line 2983 column 31: model is not available")
(error "line 2984 column 38: model is not available")
(error "line 2985 column 31: model is not available")
(error "line 2986 column 38: model is not available")
(error "line 2987 column 51: model is not available")
(error "line 2988 column 51: model is not available")
(error "line 2989 column 53: model is not available")
(error "line 2990 column 53: model is not available")
(error "line 2991 column 53: model is not available")
(error "line 2992 column 53: model is not available")
(error "line 2993 column 51: model is not available")
(error "line 2994 column 52: model is not available")
(error "line 2995 column 52: model is not available")
(error "line 2996 column 53: model is not available")
(error "line 2997 column 53: model is not available")
(error "line 2998 column 53: model is not available")
(error "line 2999 column 53: model is not available")
(error "line 3000 column 52: model is not available")
(error "line 3001 column 52: model is not available")
(error "line 3002 column 53: model is not available")
(error "line 3003 column 53: model is not available")
(error "line 3004 column 53: model is not available")
(error "line 3005 column 53: model is not available")
(error "line 3006 column 52: model is not available")
(error "line 3007 column 52: model is not available")
(error "line 3008 column 52: model is not available")
(error "line 3009 column 53: model is not available")
(error "line 3010 column 53: model is not available")
(error "line 3011 column 53: model is not available")
(error "line 3012 column 53: model is not available")
(error "line 3013 column 52: model is not available")
(error "line 3014 column 52: model is not available")
(error "line 3015 column 53: model is not available")
(error "line 3016 column 53: model is not available")
(error "line 3017 column 53: model is not available")
(error "line 3018 column 53: model is not available")
(error "line 3019 column 52: model is not available")
(error "line 3020 column 52: model is not available")
(error "line 3021 column 52: model is not available")
(error "line 3022 column 53: model is not available")
(error "line 3023 column 53: model is not available")
(error "line 3024 column 53: model is not available")
(error "line 3025 column 53: model is not available")
(error "line 3026 column 52: model is not available")
(error "line 3027 column 52: model is not available")
(error "line 3028 column 52: model is not available")
(error "line 3029 column 53: model is not available")
(error "line 3030 column 53: model is not available")
(error "line 3031 column 53: model is not available")
(error "line 3032 column 53: model is not available")
(error "line 3033 column 53: model is not available")
(error "line 3034 column 53: model is not available")
(error "line 3035 column 53: model is not available")
(error "line 3036 column 53: model is not available")
(error "line 3037 column 53: model is not available")
(error "line 3038 column 53: model is not available")
(error "line 3039 column 53: model is not available")
(error "line 3040 column 53: model is not available")
(error "line 3041 column 53: model is not available")
(error "line 3042 column 52: model is not available")
(error "line 3043 column 52: model is not available")
(error "line 3044 column 52: model is not available")
(error "line 3045 column 52: model is not available")
(error "line 3046 column 52: model is not available")
(error "line 3047 column 52: model is not available")
(error "line 3048 column 52: model is not available")
(error "line 3049 column 52: model is not available")
(error "line 3050 column 52: model is not available")
(error "line 3051 column 52: model is not available")
(error "line 3052 column 52: model is not available")
(error "line 3053 column 52: model is not available")
(error "line 3054 column 51: model is not available")
(error "line 3055 column 52: model is not available")
(error "line 3056 column 52: model is not available")
(error "line 3057 column 52: model is not available")
(error "line 3058 column 52: model is not available")
(error "line 3059 column 52: model is not available")
(error "line 3060 column 52: model is not available")
(error "line 3061 column 52: model is not available")
(error "line 3062 column 52: model is not available")
(error "line 3063 column 52: model is not available")
(error "line 3064 column 52: model is not available")
(error "line 3065 column 52: model is not available")
(error "line 3066 column 52: model is not available")
(error "line 3067 column 52: model is not available")
(error "line 3068 column 52: model is not available")
(error "line 3069 column 52: model is not available")
(error "line 3070 column 52: model is not available")
(error "line 3071 column 52: model is not available")
(error "line 3072 column 57: model is not available")
(error "line 3073 column 57: model is not available")
(error "line 3074 column 57: model is not available")
(error "line 3075 column 57: model is not available")
(error "line 3076 column 56: model is not available")
(error "line 3077 column 55: model is not available")
(error "line 3078 column 56: model is not available")
(error "line 3079 column 56: model is not available")
(error "line 3080 column 56: model is not available")
(error "line 3081 column 56: model is not available")
(error "line 3082 column 55: model is not available")
(error "line 3083 column 55: model is not available")
(error "line 3084 column 55: model is not available")
(error "line 3085 column 46: model is not available")
(error "line 3086 column 46: model is not available")
(error "line 3087 column 54: model is not available")
(error "line 3088 column 54: model is not available")
(error "line 3089 column 54: model is not available")
(error "line 3090 column 40: model is not available")
(error "line 3091 column 40: model is not available")
(error "line 3092 column 41: model is not available")
(error "line 3093 column 41: model is not available")
(error "line 3094 column 50: model is not available")
(error "line 3095 column 50: model is not available")
(error "line 3096 column 43: model is not available")
(error "line 3097 column 43: model is not available")
(error "line 3098 column 26: model is not available")
(error "line 3099 column 30: model is not available")
(error "line 3100 column 36: model is not available")
(error "line 3101 column 36: model is not available")
(error "line 3102 column 30: model is not available")
(error "line 3103 column 36: model is not available")
(error "line 3104 column 36: model is not available")
(error "line 3105 column 30: model is not available")
(error "line 3106 column 21: model is not available")
(error "line 3107 column 28: model is not available")
(error "line 3108 column 22: model is not available")
(error "line 3109 column 29: model is not available")
(error "line 3110 column 22: model is not available")
(error "line 3111 column 29: model is not available")
(error "line 3112 column 22: model is not available")
(error "line 3113 column 29: model is not available")
(error "line 3114 column 22: model is not available")
(error "line 3115 column 29: model is not available")
(error "line 3116 column 22: model is not available")
(error "line 3117 column 29: model is not available")
(error "line 3118 column 22: model is not available")
(error "line 3119 column 29: model is not available")
(error "line 3120 column 21: model is not available")
(error "line 3121 column 28: model is not available")
(error "line 3122 column 21: model is not available")
(error "line 3123 column 28: model is not available")
(error "line 3124 column 21: model is not available")
(error "line 3125 column 28: model is not available")
(error "line 3126 column 21: model is not available")
(error "line 3127 column 28: model is not available")
(error "line 3128 column 21: model is not available")
(error "line 3129 column 28: model is not available")
(error "line 3130 column 21: model is not available")
(error "line 3131 column 28: model is not available")
(error "line 3132 column 21: model is not available")
(error "line 3133 column 28: model is not available")
(error "line 3134 column 21: model is not available")
(error "line 3135 column 28: model is not available")
(error "line 3136 column 18: model is not available")
(error "line 3137 column 25: model is not available")
(error "line 3138 column 18: model is not available")
(error "line 3139 column 25: model is not available")
(error "line 3140 column 18: model is not available")
(error "line 3141 column 25: model is not available")
(error "line 3142 column 18: model is not available")
(error "line 3143 column 25: model is not available")
(error "line 3144 column 18: model is not available")
(error "line 3145 column 25: model is not available")
(error "line 3147 column 10: model is not available")
(:added-eqs                      113
 :arith-bound-propagations-cheap 60
 :arith-bound-propagations-lp    255
 :arith-conflicts                2
 :arith-lower                    119
 :arith-make-feasible            67
 :arith-max-columns              230
 :arith-max-rows                 175
 :arith-propagations             60
 :arith-upper                    148
 :binary-propagations            904
 :bv-bit2core                    1021
 :bv-dynamic-diseqs              6
 :bv->core-eq                    2
 :conflicts                      20
 :decisions                      225
 :del-clause                     78
 :eliminated-applications        17
 :eliminated-vars                20
 :max-memory                     5.25
 :memory                         3.39
 :minimized-lits                 5
 :mk-bool-var                    1120
 :mk-clause                      564
 :num-allocs                     2793932
 :num-checks                     1
 :propagations                   1104
 :rlimit-count                   225007
 :time                           0.03
 :total-time                     0.04)

real	0m0.043s
user	0m0.039s
sys	0m0.003s
State: RE Run_time: 0.0449223518371582